Route #1: 3
Route #2: 15 66 90 89 75 91
Route #3: 78 50 119 53 70 127 47
Route #4: 38 28 83 109 51 120 69 97 31 125 24
Route #5: 118 14 117 115 122 5 123
Route #6: 74 99 42 16 114 73 49 92 104 76 79 10 116 95 96 12 37 8
Route #7: 87 121 94 110 17 101 41 61 85 11 105 65 108 100 72 112 32 102
Route #8: 106 128 107 26 71 126 36 81 4 98 68 80
Route #9: 111 29 45 6 54 7 124 88
Route #10: 19 22 46 33 21 34 2 48 55 40 58 63 20
Route #11: 9 30 43 39 23 1 44 64
Route #12: 93 67 84 25 62 56 13 57 35 77 60
Route #13: 103 59 18 82 113 27 52 86
Cost 21898.000000